SPARKNaCl/why3-cvc5/sparknacl-hkdf.adb_63_7_precondition2_1.smt2
;; produced by cvc5.drv ;;
(set-logic ALL)
(set-info :smt-lib-version 2.6)
;;; generated by SMT-LIB2 driver
;;; SMT-LIB2 driver: bit-vectors, common part
;;; SMT-LIB2: integer arithmetic
;; "length"
(define-fun length ((x Int) (y Int)) Int
  (ite (<= x y) (+ (- y x) 1) 0))

;; "pow2"
(declare-fun pow2 (Int) Int)

(declare-const two_power_size_minus_one Int)

;; "two_power_size_minus_one_val"
(assert (= two_power_size_minus_one (pow2 (- 32 1))))

;; "min"
(define-fun min ((x Int) (y Int)) Int
  (ite (<= x y) x y))

;; "max"
(define-fun max ((x Int) (y Int)) Int
  (ite (<= x y) y x))

;; "Min_r"
(assert (forall ((x Int) (y Int)) (=> (<= y x) (= (min x y) y))))

;; "Max_l"
(assert (forall ((x Int) (y Int)) (=> (<= y x) (= (max x y) x))))

;; "Min_comm"
(assert (forall ((x Int) (y Int)) (= (min x y) (min y x))))

;; "Max_comm"
(assert (forall ((x Int) (y Int)) (= (max x y) (max y x))))

;; "Min_assoc"
(assert
  (forall ((x Int) (y Int) (z Int)) (= (min (min x y) z) (min x (min y z)))))

;; "Max_assoc"
(assert
  (forall ((x Int) (y Int) (z Int)) (= (max (max x y) z) (max x (max y z)))))

(declare-sort tinteger_32B 0)

;; "tinteger_32B'int"
(declare-fun tinteger_32Bqtint (tinteger_32B) Int)

;; "tinteger_32B'axiom"
(assert
  (forall ((i tinteger_32B))
    (and
      (<= (- 2147483648) (tinteger_32Bqtint i))
      (<= (tinteger_32Bqtint i) 2147483647))))

;; "in_range"
(define-fun in_range ((x Int)) Bool
  (and (<= (- 2147483648) x) (<= x 2147483647)))

;; "to_rep"
(define-fun to_rep ((x tinteger_32B)) Int
  (tinteger_32Bqtint x))

;; "of_rep"
(declare-fun of_rep (Int) tinteger_32B)

;; "inversion_axiom"
(assert
  (forall ((x tinteger_32B))
    (! (= (of_rep (to_rep x)) x) :pattern ((to_rep x)) )))

;; "range_axiom"
(assert
  (forall ((x tinteger_32B))
    (! (in_range (to_rep x)) :pattern ((to_rep x)) )))

;; "coerce_axiom"
(assert
  (forall ((x Int))
    (! (=> (in_range x) (= (to_rep (of_rep x)) x)) :pattern ((to_rep
                                                               (of_rep x))) )))

;; "in_range"
(define-fun in_range1 ((x Int)) Bool
  (and (<= 0 x) (<= x 2147483647)))

(declare-const two_power_size_minus_one1 Int)

;; "two_power_size_minus_one_val"
(assert (= two_power_size_minus_one1 (pow2 (- 8 1))))

(declare-sort byte 0)

;; "to_rep"
(declare-fun to_rep1 (byte) (_ BitVec 8))

;; "of_rep"
(declare-fun of_rep1 ((_ BitVec 8)) byte)

;; "inversion_axiom"
(assert
  (forall ((x byte)) (! (= (of_rep1 (to_rep1 x)) x) :pattern ((to_rep1 x)) )))

;; "range_axiom"
(assert true)

;; "coerce_axiom"
(assert
  (forall ((x (_ BitVec 8)))
    (! (= (to_rep1 (of_rep1 x)) x) :pattern ((to_rep1 (of_rep1 x))) )))

(declare-sort map1 0)

;; "has_bounds"
(declare-fun has_bounds (map1
  Int
  Int) Bool)

;; "get"
(declare-fun get (map1
  Int) byte)

(declare-datatypes ((t 0))
  (((tqtmk (rec__first tinteger_32B)(rec__last tinteger_32B)))))

;; "dynamic_property"
(define-fun dynamic_property ((range_first Int) (range_last Int) (low Int) (high Int)) Bool
  (and
    (in_range low)
    (and
      (in_range high)
      (=> (<= low high) (and (in_range1 low) (in_range1 high))))))

(declare-datatypes ((us_t 0))
  (((us_tqtmk (elts map1)(rt t)))))

;; "first"
(define-fun first ((a us_t)) Int
  (to_rep (rec__first (rt a))))

;; "last"
(define-fun last ((a us_t)) Int
  (to_rep (rec__last (rt a))))

;; "length"
(define-fun length1 ((a us_t)) Int
  (ite (<= (first a) (last a)) (+ (- (last a) (first a)) 1) 0))

;; "well_formed"
(define-fun well_formed ((a us_t)) Bool
  (has_bounds
    (elts a)
    (to_rep (rec__first (rt a)))
    (to_rep (rec__last (rt a)))))

(declare-datatypes ((byte__init_wrapper 0))
  (((byte__init_wrapperqtmk (rec__value byte)(us_attr__init Bool)))))

(declare-sort map2 0)

;; "get"
(declare-fun get1 (map2
  Int) byte__init_wrapper)

;; "in_range"
(define-fun in_range2 ((x Int)) Bool
  (and (<= 0 x) (<= x 8159)))

(declare-datatypes ((t1 0))
  (((tqtmk1 (rec__first1 tinteger_32B)(rec__last1 tinteger_32B)))))

;; "mk"
(declare-fun mk (Int
  Int) t1)

;; "mk_def"
(assert
  (forall ((f Int) (l Int))
    (! (=>
         (in_range f)
         (=>
           (in_range l)
           (and
             (= (to_rep (rec__first1 (mk f l))) f)
             (= (to_rep (rec__last1 (mk f l))) l)))) :pattern ((mk f l)) )))

;; "dynamic_property"
(define-fun dynamic_property1 ((range_first Int) (range_last Int) (low Int) (high Int)) Bool
  (and
    (in_range low)
    (and
      (in_range high)
      (=> (<= low high) (and (in_range2 low) (in_range2 high))))))

(declare-datatypes ((us_t1 0))
  (((us_tqtmk1 (elts1 map1)(rt1 t1)))))

;; "of_array"
(define-fun of_array ((a map1) (f Int) (l Int)) us_t1
  (us_tqtmk1 a (mk f l)))

;; "well_formed"
(define-fun well_formed1 ((a us_t1)) Bool
  (has_bounds
    (elts1 a)
    (to_rep (rec__first1 (rt1 a)))
    (to_rep (rec__last1 (rt1 a)))))

(declare-datatypes ((t2 0))
  (((tqtmk2 (rec__first2 tinteger_32B)(rec__last2 tinteger_32B)))))

;; "mk"
(declare-fun mk1 (Int
  Int) t2)

;; "mk_def"
(assert
  (forall ((f Int) (l Int))
    (! (=>
         (in_range f)
         (=>
           (in_range l)
           (and
             (= (to_rep (rec__first2 (mk1 f l))) f)
             (= (to_rep (rec__last2 (mk1 f l))) l)))) :pattern ((mk1 f l)) )))

(declare-datatypes ((us_t2 0))
  (((us_tqtmk2 (elts2 map2)(rt2 t2)))))

;; "of_array"
(define-fun of_array1 ((a map2) (f Int) (l Int)) us_t2
  (us_tqtmk2 a (mk1 f l)))

(declare-const okm__first tinteger_32B)

(declare-const okm__last tinteger_32B)

(declare-const ikm us_t)

(declare-const salt us_t)

(declare-const info us_t)

;; "convert"
(declare-fun convert (map1) map2)

;; "convert__def"
(assert
  (forall ((a map1))
    (let ((b (convert a)))
      (forall ((temp___170 Int))
        (and
          (= (us_attr__init
               (byte__init_wrapperqtmk
                 (of_rep1 (to_rep1 (get a temp___170)))
                 true)) (us_attr__init (get1 b temp___170)))
          (= (to_rep1
               (rec__value
                 (byte__init_wrapperqtmk
                   (of_rep1 (to_rep1 (get a temp___170)))
                   true))) (to_rep1 (rec__value (get1 b temp___170)))))))))

;; "dynamic_invariant"
(define-fun dynamic_invariant ((temp___expr_244 us_t) (temp___is_init_240 Bool) (temp___skip_constant_241 Bool) (temp___do_toplevel_242 Bool) (temp___do_typ_inv_243 Bool)) Bool
  (and
    (=>
      (not (= temp___skip_constant_241 true))
      (dynamic_property
        0
        2147483647
        (first temp___expr_244)
        (last temp___expr_244)))
    (well_formed temp___expr_244)))

;; Goal "def'vc"
;; File "sparknacl-hkdf.ads", line 39, characters 0-0
(assert
  (not
  (forall ((okm map1) (prk map1))
    (=>
      (and
        (dynamic_property1 0 8159 (to_rep okm__first) (to_rep okm__last))
        (well_formed1 (of_array okm (to_rep okm__first) (to_rep okm__last))))
      (=>
        (dynamic_invariant ikm true false true true)
        (=>
          (dynamic_invariant salt true false true true)
          (=>
            (dynamic_invariant info true false true true)
            (=>
              (and
                (and
                  (and
                    (and
                      (and
                        (and
                          (and
                            (and
                              (and
                                (= (to_rep okm__first) 0)
                                (<= 1 (length
                                        (to_rep okm__first)
                                        (to_rep okm__last))))
                              (<= (length
                                    (to_rep okm__first)
                                    (to_rep okm__last)) 8160))
                            (= (first ikm) 0))
                          (< 0 (length1 ikm)))
                        (bvult ((_ int2bv 32) (length1 ikm)) #x7FFFFFBF))
                      (= (first salt) 0))
                    (< 0 (length1 salt)))
                  (= (first info) 0))
                (bvult ((_ int2bv 32) (length1 info)) #x7FFFFF9E))
              (=>
                (has_bounds prk 0 31)
                (forall ((param__prk map1))
                  (=>
                    (has_bounds param__prk 0 31)
                    (forall ((prk1 map1))
                      (=>
                        (= prk1 param__prk)
                        (forall ((o Int))
                          (=>
                            (= (to_rep okm__last) o)
                            (forall ((o1 Int))
                              (=>
                                (= (to_rep okm__first) o1)
                                (forall ((o2 tinteger_32B))
                                  (=>
                                    (= (to_rep o2) o)
                                    (forall ((o3 tinteger_32B))
                                      (=>
                                        (= (to_rep o3) o1)
                                        (< 0 (length (to_rep o3) (to_rep o2))))))))))))))))))))))))

(check-sat)
